An4O8
1.00
5.40  0.00  0.00
0.00  5.40  0.00
0.00  0.00  5.40
4 8
Direct
0.00  0.00  0.00
0.50  0.50  0.00
0.50  0.00  0.50
0.00  0.50  0.50
0.25  0.25  0.25
0.25  0.25  0.75
0.25  0.75  0.25
0.25  0.75  0.75
0.75  0.75  0.75
0.75  0.75  0.25
0.75  0.25  0.75
0.75  0.25  0.25
